# 95741
param n := 30;
param s := 1;
set E :=  (0,21) (0,22) (1,23) (1,25) (2,19) (3,17) (3,21) (4,24) (5,10) (5,15) (5,27) (6,8) (7,14) (7,24) (8,17) (8,23) (8,24) (9,13) (9,26) (10,13) (11,18) (11,28) (12,16) (12,20) (12,23) (13,21) (14,17) (15,16) (16,18) (19,24) (27,29);
